c WARNING: for repeatability, setting FPU to use double precision
d VARIABLES            20804        
d CONSTRAINTS          82245        
c ============================[ Problem Statistics ]=============================
c |                                                                             |
c |  Number of variables:         20804                                         |
c |  Number of clauses:           82245                                         |
c |  Parse time:                   0.01 s                                       |
c |                                                                             |
c ============================[ Search Statistics ]==============================
c | Conflicts |          ORIGINAL         |          LEARNT          | Progress |
c |           |    Vars  Clauses Literals |    Limit  Clauses Lit/Cl |          |
c ===============================================================================
c |       100 |   14905    65557   160568 |    24037      100     80 | 28.355 % |
c |       250 |   14905    65557   160568 |    26441      250     71 | 28.355 % |
c |       475 |   14905    65557   160568 |    29085      475     87 | 28.355 % |
c |       812 |   14905    65557   160568 |    31994      812     89 | 28.355 % |
c |      1318 |   14905    65557   160568 |    35193     1318     85 | 28.355 % |
c |      2077 |   14905    65557   160568 |    38712     2077     96 | 28.355 % |
c |      3216 |   14905    65557   160568 |    42584     3216    100 | 28.355 % |
c |      4924 |   14905    65557   160568 |    46842     4924     99 | 28.355 % |
c |      7486 |   14905    65557   160568 |    51526     7486    106 | 28.355 % |
c |     11330 |   14905    65557   160568 |    56679    11330    105 | 28.355 % |
c |     17096 |   14905    65557   160568 |    62347    17096    119 | 28.355 % |
c |     25745 |   14905    65557   160568 |    68581    25745    127 | 28.355 % |
c |     38719 |   14905    65557   160568 |    75440    38719    133 | 28.355 % |
c |     58180 |   14902    65543   160534 |    82984    58179    136 | 28.370 % |
c |     87372 |   14902    65543   160534 |    91282    87371    140 | 28.370 % |
c |    131161 |   14902    65543   160534 |   100410    47737    135 | 28.370 % |
c |    196845 |   14902    65543   160534 |   110451    22904    154 | 28.370 % |
c |    295371 |   14902    65543   160534 |   121497    26488     96 | 28.370 % |
c |    443160 |   14902    65543   160534 |   133646    69884    118 | 28.370 % |
c |    664843 |   14902    65543   160534 |   147011    54238    102 | 28.370 % |
c |    997368 |   14902    65543   160534 |   161712   128805    124 | 28.370 % |
c |   1496156 |   14898    65524   160488 |   177884    30090     73 | 28.389 % |
c |   2244338 |   14898    65524   160488 |   195672   136029    197 | 28.389 % |
c |   3366612 |   14895    65510   160454 |   215239   183261    145 | 28.403 % |
c |   5050023 |   14895    65510   160454 |   236763    80488    134 | 28.403 % |
c ===============================================================================
c restarts              : 8191
c conflicts             : 5205435        (2909 /sec)
c decisions             : 10763707       (0.00 % random) (6016 /sec)
c propagations          : 4541292320     (2538147 /sec)
c conflict literals     : 771716868      (33.51 % deleted)
d RESTARTS             8191
d FAILURES             5205435      
d NODES                10763707     
d BACKTRACKS           10763707     
d PROPAGATIONS         4541292320   
d NOGOODSIZE           148.25 
d MEMORY               325.00 
d TIME                 1789.22 

s UNKNOWN
